p edge 215 214 93
e 1 192
e 2 22
e 3 54
e 3 169
e 4 118
e 5 58
e 6 120
e 7 41
e 7 108
e 7 198
e 7 175
e 8 127
e 8 58
e 9 182
e 9 137
e 9 132
e 10 30
e 10 145
e 10 162
e 10 62
e 11 29
e 11 129
e 11 92
e 12 102
e 13 111
e 13 50
e 13 171
e 14 93
e 14 209
e 15 27
e 15 45
e 16 47
e 16 80
e 16 123
e 17 63
e 17 64
e 17 151
e 18 101
e 19 174
e 20 89
e 20 202
e 21 171
e 21 93
e 22 167
e 23 141
e 23 118
e 24 70
e 24 139
e 25 53
e 26 170
e 26 106
e 27 90
e 28 207
e 31 144
e 32 200
e 33 84
e 33 183
e 33 143
e 34 209
e 34 44
e 35 139
e 36 105
e 36 147
e 36 206
e 37 96
e 37 131
e 37 127
e 38 201
e 38 206
e 39 176
e 39 184
e 39 109
e 40 202
e 42 94
e 42 75
e 43 78
e 44 166
e 44 100
e 44 147
e 45 74
e 45 141
e 46 141
e 48 107
e 48 132
e 48 154
e 49 79
e 50 130
e 51 185
e 51 80
e 52 118
e 52 175
e 53 165
e 53 115
e 55 105
e 56 102
e 57 181
e 57 149
e 58 101
e 58 167
e 58 177
e 59 206
e 59 187
e 60 124
e 60 61
e 61 75
e 61 72
e 62 168
e 63 202
e 64 154
e 65 178
e 65 73
e 66 153
e 67 131
e 68 157
e 68 155
e 69 196
e 69 86
e 70 117
e 71 78
e 71 82
e 72 200
e 72 128
e 73 92
e 73 168
e 73 77
e 73 91
e 74 79
e 75 146
e 75 180
e 76 128
e 77 114
e 79 158
e 79 169
e 81 182
e 82 169
e 83 214
e 83 159
e 84 163
e 85 108
e 86 182
e 87 153
e 87 173
e 88 92
e 89 122
e 91 170
e 93 121
e 95 97
e 97 187
e 97 114
e 98 103
e 98 163
e 99 207
e 100 152
e 102 207
e 102 135
e 104 175
e 106 215
e 107 210
e 109 140
e 110 199
e 110 208
e 112 123
e 113 142
e 113 134
e 113 128
e 114 179
e 115 213
e 115 150
e 116 133
e 117 172
e 117 143
e 117 173
e 119 202
e 120 143
e 121 192
e 121 197
e 123 183
e 125 158
e 126 161
e 126 204
e 128 135
e 128 208
e 128 203
e 133 197
e 134 188
e 136 153
e 137 212
e 138 204
e 139 193
e 140 155
e 144 204
e 144 153
e 146 160
e 147 195
e 148 170
e 149 167
e 150 159
e 150 190
e 151 164
e 152 155
e 155 174
e 156 182
e 159 203
e 161 175
e 164 189
e 164 173
e 173 194
e 177 193
e 181 186
e 184 211
e 190 193
e 190 209
e 191 203
e 193 205
